/* Objective function */
min: - 0.0054fpdi - 0.0054fpdo + 0.05apdi + 0.05apdo + 0.0002pi + 0.0002po - 0.5fsi - 0.5fso;

apdi = 0.0 hi + -0.0 li + 9.44444 ri + -0.02381 ci + -1.01565 si + 0.0 ti + 0.0551 fTempIi + 0.02746 ami + -77.29683;
asi = 0.0 hi + 0.0 li + 0.0 ri + 0.0 ci + 0.0 si + 0.0 ti + -0.0 fTempIi + 0.00043 ami + -0.0;
aTempOi = 0.0 hi + -0.0 li + 0.39706 ri + -0.31667 ci + -0.05757 si + 0.0 ti + 0.76126 fTempIi + -0.00151 ami + 6.84744;
fpdi = 0.0 hi + 0.0 li + 27.25813 ri + -189.41548 ci + -0.04647 si + 0.0 ti + -1.04391 fTempIi + 0.00117 ami + 489.79181;
fsi = 0.0 hi + 0.0 li + -0.0 ri + -0.52 ci + -0.0 si + 0.0 ti + -0.0 fTempIi + 0.0 ami + 2.59;
fTempOi = 0.0 hi + 0.0 li + -0.39107 ri + 0.31865 ci + 0.05589 si + 0.0 ti + 0.27486 fTempIi + -0.0014 ami + 9.51936;
pi = 0.0 hi + -0.0 li + 74.16667 ri + 3.66667 ci + -3.96786 si + 0.0 ti + -0.0 fTempIi + -0.0 ami + 218.64881;

apdo = 0.0 ho + -0.0 lo + 0.0 ro + 0.03968 co + -0.87721 so + 0.0 to + 0.07551 fTempIo + 0.02436 amo + -10.96667;
aso = 0.0 ho + 0.0 lo + -0.0 ro + 0.0 co + -0.0 so + 0.0 to + 0.0 fTempIo + 0.00043 amo + -0.0;
aTempOo = 0.0 ho + -0.0 lo + 0.0 ro + 0.37571 co + 0.06978 so + 0.0 to + 0.69197 fTempIo + 0.00156 amo + -1.97207;
fpdo = 0.0 ho + 0.0 lo + -0.0 ro + -162.99762 co + 0.04937 so + 0.0 to + -0.95871 fTempIo + -0.00102 amo + 581.22291;
fso = 0.0 ho + 0.0 lo + -0.0 ro + -0.5196 co + -2e-05 so + 0.0 to + 0.00016 fTempIo + 0.0 amo + 2.58691;
fTempOo = 0.0 ho + 0.0 lo + -0.0 ro + -0.37302 co + -0.06711 so + 0.0 to + 0.33197 fTempIo + 0.00138 amo + 14.447;
po = 0.0 ho + -0.0 lo + 0.0 ro + 3.66667 co + -2.57143 so + 0.0 to + -0.0 fTempIo + -0.0 amo + 591.7619;

/* Variable bounds */
aTempOi > 18.6;
1 =r6i + r8i + r10i + r12i + r14i;
ri =6r6i + 8r8i + 10r10i + 12r12i + 14r14i;
1 =s25i + s30i + s40i;
si =25s25i + 30s30i + 40s40i;
ti = 1;
apdi > 100;
apdi < 300;
asi > 0;
asi < 3;
aTempOi > 5;
aTempOi < 25;
fpdi > 100;
fpdi < 300;
fsi > 0;
fsi < 1.25;
fTempOi > 5;
fTempOi < 25;
pi > 0;
ri > 6;
ri < 10;
ci > 1;
ci < 4;
si > 25;
si < 60;
ti > 1;
ti < 3;
fTempIi > 5;
fTempIi < 25;

/* aTempOo < 11.4; */
1 =r6o + r8o + r10o + r12o + r14o;
ro =6r6o + 8r8o + 10r10o + 12r12o + 14r14o;
1 =s25o + s30o + s40o;
so =25s25o + 30s30o + 40s40o;
to = 2;
apdo > 100;
apdo < 300;
aso > 0;
aso < 3;
aTempOo > 5;
aTempOo < 25;
fpdo > 100;
fpdo < 300;
fso > 0;
fso < 1.25;
fTempOo > 5;
fTempOo < 25;
po > 0;
ro > 6;
ro < 8;
co > 1;
co < 4;
so > 25;
so < 60;
to > 1;
to < 3;
fTempIo > 5;
fTempIo < 25;
int hi,li,si,ti,ci,ri,ami;
int ho,lo,so,to,co,ro,amo;
bin s25i,s30i,s40i,s50i,s60i,r6i,r8i,r10i,r12i,r14i;
bin s25o,s30o,s40o,s50o,s60o,r6o,r8o,r10o,r12o,r14o;
